 ! --------------------------------------------------- CP Optimizer 22.1.1.0 --
 ! Satisfiability problem - 38900 variables, 387343 constraints
 ! Presolve      : 24000 extractables eliminated
 ! TimeLimit            = 3600
 ! Workers              = 1
 ! Initial process time : 3.70s (3.67s extraction + 0.03s propagation)
 !  . Log search space  : 402087.1 (before), 402087.1 (after)
 !  . Memory usage      : 281.7 MB (before), 281.7 MB (after)
 ! Using sequential search.
 ! ----------------------------------------------------------------------------
 !               Branches  Non-fixed            Branch decision
                     1118      37462        F          presenceOf(copy_trips:35_12)
                     2053      38275        F          presenceOf(copy_trips:5_0)
                     3000      30417                   presenceOf(copy_lane_parking:3_31)
                     4000      27095                  !presenceOf(copy_bus_parking:14_10)
                     5000      33840        F          presenceOf(copy_trips:14_9)
                     6000      24902            245 != endOf(start_parking:37)
                     7000      23205        F         !presenceOf(copy_bus_parking:4_0)
                     8000      22983                   presenceOf(copy_lane_parking:0_266)
                     9000      26353        F          presenceOf(copy_trips:34_16)
                    10000      26853                   presenceOf(copy_lane_parking:0_97)
                    11000      16669        F          presenceOf(copy_bus_parking:4_34)
                    12000      16835                   presenceOf(copy_lane_parking:1_157)
                    13000      22856                  !presenceOf(copy_trips:35_295)
                    14000      24887                   presenceOf(copy_lane_parking:1_74)
                    15000      24884                  !presenceOf(copy_trips:14_295)
                    16000      24884                  !presenceOf(copy_trips:0_295)
                    17000      24884        F          presenceOf(copy_bus_parking:4_297)
                    18000      24884        F          presenceOf(copy_trips:35_297)
                    19000      24893                  !presenceOf(copy_trips:29_295)
                    20000      13318                  !presenceOf(copy_bus_parking:1_202)
 ! Time = 26.89s, Average fail depth = 372, Memory usage = 921.6 MB
 !               Branches  Non-fixed            Branch decision
                    21000      13318                   presenceOf(copy_lane_parking:1_136)
                    22000      13326                   presenceOf(copy_lane_parking:5_169)
                    23000      24893        F          presenceOf(copy_trips:17_295)
                    24000      24893                   presenceOf(copy_lane_parking:3_250)
                    25000      24899                  !presenceOf(copy_trips:23_0)
                    26000      22279        F         !presenceOf(copy_bus_parking:23_2)
                    27000      22215        F          presenceOf(copy_bus_parking:12_11)
                    28000      22222                  !presenceOf(copy_bus_parking:23_295)
                    29000      13338        F          presenceOf(copy_bus_parking:28_218)
                    30000      13338        F          presenceOf(copy_bus_parking:15_2)
                    31000      22658                  !presenceOf(copy_bus_parking:22_2)
                    32000      22658                  !presenceOf(copy_bus_parking:10_4)
                    33000      22706                   presenceOf(copy_bus_parking:17_59)
                    34000      13338                  !presenceOf(copy_bus_parking:24_218)
                    35000      13338                   presenceOf(copy_lane_parking:5_31)
                    36000      24890        F          presenceOf(copy_bus_parking:31_17)
                    37000      26712                  !presenceOf(copy_trips:7_10)
                    38000      26709        F         !presenceOf(copy_bus_parking:6_16)
                    39000      26706        F          presenceOf(copy_trips:14_10)
                    40000      22219                   presenceOf(copy_lane_parking:6_40)
 ! Time = 48.73s, Average fail depth = 391, Memory usage = 923.1 MB
 !               Branches  Non-fixed            Branch decision
                    41000      16820                  !presenceOf(copy_trips:31_29)
                    42000      16820            245 != endOf(start_parking:14)
                    43000      24893        F          presenceOf(copy_bus_parking:3_295)
                    44000      13332                  !presenceOf(copy_bus_parking:32_202)
                    45000      13329                  !presenceOf(copy_bus_parking:7_202)
                    46000      13332                  !presenceOf(copy_trips:20_26)
                    47000      24902                  !presenceOf(copy_trips:23_295)
                    48000      24902                   presenceOf(copy_lane_parking:3_235)
                    49000      24890                  !presenceOf(copy_bus_parking:14_295)
                    50000      24893                  !presenceOf(copy_bus_parking:9_19)
                    51000      13338        F          presenceOf(copy_trips:16_218)
                    52000      13338        F          presenceOf(copy_trips:21_218)
                    53000      13338        F          presenceOf(copy_trips:17_218)
                    54000      13338                   presenceOf(copy_lane_parking:0_71)
                    55000      30572        F          presenceOf(copy_bus_parking:6_70)
                    56000      27182                   presenceOf(copy_bus_parking:25_243)
                    57000      24890        F          presenceOf(copy_bus_parking:17_297)
                    58000      24899                  !presenceOf(copy_bus_parking:4_295)
                    59000      24899                  !presenceOf(copy_bus_parking:10_295)
                    60000      24899        F          presenceOf(copy_bus_parking:17_297)
 ! Time = 69.67s, Average fail depth = 400, Memory usage = 923.1 MB
 !               Branches  Non-fixed            Branch decision
                    61000      13329        F          presenceOf(copy_bus_parking:0_202)
                    62000      13329        F         !presenceOf(copy_bus_parking:8_0)
                    63000      22735        F          presenceOf(copy_trips:4_8)
                    64000      22604        F          presenceOf(copy_trips:25_8)
                    65000      22604                  !presenceOf(copy_bus_parking:32_10)
                    66000      22604                  !presenceOf(copy_trips:30_8)
                    67000      22604        F          presenceOf(copy_trips:25_8)
                    68000      22604        F         !presenceOf(copy_trips:2_8)
                    69000      22604                  !presenceOf(copy_bus_parking:39_10)
                    70000      22604        F          presenceOf(copy_trips:25_8)
                    71000      22604                   presenceOf(copy_bus_parking:32_9)
                    72000      22604        F          presenceOf(copy_trips:4_8)
                    73000      22604                  !presenceOf(copy_bus_parking:34_10)
                    74000      22604        F          presenceOf(copy_trips:25_8)
                    75000      16062                   presenceOf(copy_bus_parking:12_212)
                    76000      13332                   presenceOf(copy_lane_parking:0_260)
                    77000      16121                   presenceOf(copy_trips:2_54)
                    78000      24890                  !presenceOf(copy_trips:8_295)
                    79000      24890                  !presenceOf(copy_trips:6_295)
                    80000      24890        F          presenceOf(copy_trips:5_297)
 ! Time = 88.75s, Average fail depth = 404, Memory usage = 929.3 MB
 !               Branches  Non-fixed            Branch decision
                    81000      24890                   presenceOf(copy_lane_parking:2_67)
                    82000      16992                  !presenceOf(copy_trips:30_40)
                    83000      16992                  !presenceOf(copy_trips:38_40)
                    84000      16992                  !presenceOf(copy_trips:29_40)
                    85000      16992                  !presenceOf(copy_trips:31_40)
                    86000      16992                   presenceOf(copy_bus_parking:28_45)
                    87000      16992                  !presenceOf(copy_trips:3_40)
                    88000      16992                  !presenceOf(copy_trips:5_40)
                    89000      16992                  !presenceOf(copy_trips:30_40)
                    90000      16992                  !presenceOf(copy_trips:38_40)
                    91000      16992                  !presenceOf(copy_trips:15_40)
                    92000      16992                  !presenceOf(copy_trips:31_40)
                    93000      16992                   presenceOf(copy_bus_parking:13_45)
                    94000      16992                  !presenceOf(copy_trips:3_40)
                    95000      16992                  !presenceOf(copy_trips:36_1)
                    96000      26347            on charge:33_72
                    97000      24887                   presenceOf(copy_lane_parking:5_162)
                    98000      24893                   presenceOf(copy_bus_parking:26_253)
                    99000      24893                  !presenceOf(copy_bus_parking:5_295)
                     100k      24893                   presenceOf(copy_bus_parking:22_153)
 ! Time = 112.06s, Average fail depth = 406, Memory usage = 929.6 MB
 !               Branches  Non-fixed            Branch decision
                     101k      13329                   presenceOf(copy_lane_parking:2_74)
                     102k      24887                   presenceOf(copy_lane_parking:2_92)
                     103k      15155                   presenceOf(copy_bus_parking:36_222)
                     104k      13338                   presenceOf(copy_lane_parking:1_177)
                     105k      23672        F          presenceOf(copy_bus_parking:6_2)
                     106k      23669        F          presenceOf(copy_bus_parking:2_2)
                     107k      23618        F          presenceOf(copy_bus_parking:6_2)
                     108k      23671        F          presenceOf(copy_trips:4_2)
                     109k      33791                  !presenceOf(copy_bus_parking:4_4)
                     110k      33624        F          presenceOf(copy_trips:5_10)
                     111k      33624                  !presenceOf(copy_trips:10_10)
                     112k      33624        F          presenceOf(copy_trips:17_10)
                     113k      33624                  !presenceOf(copy_bus_parking:4_4)
                     114k      33624                   presenceOf(copy_trips:11_10)
                     115k      33624                   presenceOf(copy_bus_parking:10_4)
                     116k      33624                  !presenceOf(copy_trips:11_10)
                     117k      33624                  !presenceOf(copy_trips:10_10)
                     118k      33624                  !presenceOf(copy_bus_parking:4_4)
                     119k      33624                  !presenceOf(copy_trips:35_10)
                     120k      33624                  !presenceOf(copy_bus_parking:20_4)
 ! Time = 128.95s, Average fail depth = 397, Memory usage = 929.6 MB
 !               Branches  Non-fixed            Branch decision
                     121k      17542                   presenceOf(copy_bus_parking:13_261)
                     122k      13223                   presenceOf(copy_lane_parking:1_39)
                     123k      24893        F          presenceOf(copy_trips:38_297)
                     124k      24893                  !presenceOf(copy_bus_parking:8_295)
                     125k      24893        F          presenceOf(copy_trips:38_297)
                     126k      24893        F          presenceOf(copy_trips:24_12)
                     127k      26590            245  = endOf(start_parking:25)
                     128k      13212                   presenceOf(copy_lane_parking:3_267)
                     129k      24884                   presenceOf(copy_bus_parking:31_295)
                     130k      24881        F         !presenceOf(copy_bus_parking:23_297)
                     131k      24884        F          presenceOf(copy_bus_parking:0_295)
                     132k      24881        F          presenceOf(copy_bus_parking:18_295)
                     133k      24884        F          presenceOf(copy_bus_parking:3_295)
                     134k      24881        F          presenceOf(copy_bus_parking:8_295)
                     135k      24884        F          presenceOf(copy_bus_parking:20_295)
                     136k      24881        F          presenceOf(copy_bus_parking:24_295)
                     137k      24884        F          presenceOf(copy_bus_parking:33_295)
                     138k      24881                   presenceOf(copy_bus_parking:5_295)
                     139k      24884        F          presenceOf(copy_bus_parking:24_295)
                     140k      24887        F          presenceOf(copy_bus_parking:11_295)
 ! Time = 146.31s, Average fail depth = 397, Memory usage = 929.6 MB
 !               Branches  Non-fixed            Branch decision
                     141k      24884                  !presenceOf(copy_bus_parking:27_295)
                     142k      24872                   presenceOf(copy_lane_parking:3_204)
                     143k      28493        F          presenceOf(copy_bus_parking:21_29)
                     144k      26681                  !presenceOf(copy_bus_parking:13_3)
                     145k      16512        F          presenceOf(copy_trips:8_28)
                     146k      13311                  !presenceOf(copy_bus_parking:39_218)
                     147k      13311        F          presenceOf(copy_bus_parking:35_27)
                     148k      22046                   presenceOf(copy_lane_parking:2_175)
                     149k      24893        F          presenceOf(copy_trips:17_297)
                     150k      24893        F          presenceOf(copy_trips:20_28)
                     151k      13332                   presenceOf(copy_bus_parking:11_201)
                     152k      13332                  !presenceOf(copy_bus_parking:2_202)
                     153k      13332                  !presenceOf(copy_bus_parking:39_202)
                     154k      13332                   presenceOf(copy_lane_parking:6_208)
                     155k      16130        F          presenceOf(copy_trips:39_26)
                     156k      16826        F          presenceOf(copy_bus_parking:35_40)
                     157k      16826                   presenceOf(copy_trips:13_32)
                     158k      24902        F          presenceOf(copy_bus_parking:39_295)
                     159k      24902        F          presenceOf(copy_bus_parking:1_295)
                     160k      24902        F          presenceOf(copy_bus_parking:38_295)
 ! Time = 169.81s, Average fail depth = 397, Memory usage = 929.6 MB
 !               Branches  Non-fixed            Branch decision
                     161k      24902                   presenceOf(copy_lane_parking:1_117)
                     162k      16829                   presenceOf(copy_lane_parking:6_155)
                     163k      22093                  !presenceOf(copy_bus_parking:8_0)
                     164k      26618                   presenceOf(copy_lane_parking:0_119)
                     165k      24313        F          presenceOf(copy_trips:10_0)
                     166k      22676                   presenceOf(copy_lane_parking:1_30)
                     167k      23477                  !presenceOf(copy_trips:29_2)
                     168k      23477        F          presenceOf(copy_bus_parking:26_0)
                     169k      23030        F         !presenceOf(copy_trips:10_2)
                     170k      23659                  !presenceOf(copy_bus_parking:8_5)
                     171k      23663        F         !presenceOf(copy_trips:4_2)
                     172k      23626                   presenceOf(copy_lane_parking:6_30)
                     173k      26669                   presenceOf(copy_bus_parking:35_166)
                     174k      16678                   presenceOf(copy_trips:29_11)
                     175k      24424           1139  = startOf(charge:36_63)
                     176k      24093                   presenceOf(copy_lane_parking:6_139)
                     177k      13326                   presenceOf(copy_lane_parking:5_299)
                     178k      24893        F          presenceOf(copy_trips:23_295)
                     179k      13075        F          presenceOf(copy_bus_parking:18_295)
                     180k      13075                   presenceOf(copy_trips:22_210)
 ! Time = 196.42s, Average fail depth = 394, Memory usage = 929.7 MB
 !               Branches  Non-fixed            Branch decision
                     181k      13338                  !presenceOf(copy_trips:36_218)
                     182k      13338                  !presenceOf(copy_trips:19_218)
                     183k      13338                  !presenceOf(copy_trips:0_218)
                     184k      13338        F          presenceOf(copy_trips:8_66)
                     185k      19381        F          presenceOf(copy_bus_parking:18_72)
                     186k      19381        F         !presenceOf(copy_bus_parking:18_72)
                     187k      19381                  !presenceOf(copy_trips:39_15)
                     188k      19381        F          presenceOf(copy_bus_parking:18_72)
                     189k      19381        F          presenceOf(copy_bus_parking:18_72)
                     190k      19381        F          presenceOf(copy_bus_parking:18_72)
                     191k      19381                   presenceOf(copy_bus_parking:22_78)
                     192k      19381                  !presenceOf(copy_trips:18_15)
                     193k      19381        F          presenceOf(copy_bus_parking:18_72)
                     194k      19381                  !presenceOf(copy_trips:27_15)
                     195k      19381                   presenceOf(copy_trips:24_15)
                     196k      19381        F          presenceOf(copy_bus_parking:18_72)
                     197k      19381        F          presenceOf(copy_bus_parking:29_0)
                     198k      26594        F          presenceOf(copy_trips:31_20)
                     199k      26741        F         !presenceOf(copy_bus_parking:7_0)
                     200k      26607        F          presenceOf(copy_trips:38_20)
 ! Time = 219.08s, Average fail depth = 400, Memory usage = 929.7 MB
 !               Branches  Non-fixed            Branch decision
                     201k      26599        F          presenceOf(copy_trips:36_20)
                     202k      26605        F          presenceOf(copy_bus_parking:5_11)
                     203k      26722                   presenceOf(copy_trips:3_1)
                     204k      26574                  !presenceOf(copy_trips:6_26)
                     205k      26619        F          presenceOf(copy_bus_parking:4_0)
                     206k      26603                  !presenceOf(copy_bus_parking:2_19)
                     207k      26571                  !presenceOf(copy_trips:34_26)
                     208k      26598        F          presenceOf(copy_trips:38_20)
                     209k      26612                  !presenceOf(copy_bus_parking:1_19)
                     210k      26614                  !presenceOf(copy_trips:4_26)
                     211k      26839        F          presenceOf(copy_trips:8_20)
                     212k      26453        F         !presenceOf(copy_bus_parking:11_19)
                     213k      26476                  !presenceOf(copy_trips:0_10)
                     214k      26831                  !presenceOf(copy_trips:23_79)
                     215k      26685                  !presenceOf(copy_trips:12_79)
                     216k      26684        F          presenceOf(copy_trips:14_10)
                     217k      26699        F          presenceOf(copy_trips:32_20)
                     218k      26796                  !presenceOf(copy_bus_parking:22_19)
                     219k      26617                   presenceOf(copy_trips:4_20)
                     220k      26635                  !presenceOf(copy_bus_parking:4_0)
 ! Time = 243.73s, Average fail depth = 397, Memory usage = 929.7 MB
 !               Branches  Non-fixed            Branch decision
                     221k      26594        F          presenceOf(copy_trips:21_20)
                     222k      26599                  !presenceOf(copy_trips:29_79)
                     223k      26635                  !presenceOf(copy_trips:9_26)
                     224k      26605        F          presenceOf(copy_trips:20_20)
                     225k      26756        F         !presenceOf(copy_bus_parking:0_0)
                     226k      26616        F          presenceOf(copy_trips:17_20)
                     227k      26603                  !presenceOf(copy_trips:2_79)
                     228k      26612                  !presenceOf(copy_bus_parking:34_27)
                     229k      26617                  !presenceOf(copy_bus_parking:22_19)
                     230k      26598        F          presenceOf(copy_bus_parking:7_0)
                     231k      26485                  !presenceOf(copy_trips:8_26)
                     232k      27161                  !presenceOf(copy_trips:20_26)
                     233k      26441        F          presenceOf(copy_trips:16_12)
                     234k      26464        F          presenceOf(copy_bus_parking:16_19)
                     235k      26716        F          presenceOf(copy_trips:0_20)
                     236k      26736        F         !presenceOf(copy_trips:8_79)
                     237k      26583                  !presenceOf(copy_trips:3_79)
                     238k      26594                  !presenceOf(copy_trips:20_79)
                     239k      26595        F          presenceOf(copy_trips:26_20)
                     240k      26605                   presenceOf(copy_trips:36_1)
 ! Time = 268.84s, Average fail depth = 395, Memory usage = 929.7 MB
 !               Branches  Non-fixed            Branch decision
                     241k      26547                  !presenceOf(copy_bus_parking:16_19)
                     242k      26598        F          presenceOf(copy_trips:35_1)
                     243k      26544                  !presenceOf(copy_bus_parking:21_19)
                     244k      26614        F          presenceOf(copy_trips:37_20)
                     245k      26607                   presenceOf(copy_trips:9_12)
                     246k      26571        F          presenceOf(copy_trips:10_12)
                     247k      26568                  !presenceOf(copy_bus_parking:11_27)
                     248k      26386                  !presenceOf(copy_trips:21_26)
                     249k      27245                   presenceOf(copy_lane_parking:0_126)
                     250k      28333                   presenceOf(copy_bus_parking:6_36)
                     251k      24896                   presenceOf(copy_trips:25_295)
                     252k      24896                   presenceOf(copy_bus_parking:6_276)
                     253k      24890                   presenceOf(copy_lane_parking:6_97)
                     254k      13326        F          presenceOf(copy_trips:30_34)
                     255k      21226                   presenceOf(copy_lane_parking:6_81)
                     256k      13335                   presenceOf(copy_lane_parking:3_102)
                     257k      13324                   presenceOf(copy_lane_parking:0_48)
                     258k      22615            on charge:18_95
                     259k       8920                  !presenceOf(copy_trips:31_228)
 *                   259k  293.79s                   -
 ! Time = 293.79s, Average fail depth = 393, Memory usage = 1.0 GB
 !               Branches  Non-fixed            Branch decision
 ! ----------------------------------------------------------------------------
 ! Search completed, 1 solution found.
 ! ----------------------------------------------------------------------------
 ! Number of branches     : 259944
 ! Number of fails        : 105077
 ! Total memory usage     : 1.1 GB (1.0 GB CP Optimizer + 0.0 GB Concert)
 ! Time spent in solve    : 293.80s (290.13s engine + 3.67s extraction)
 ! Search speed (br. / s) : 896.0
 ! ----------------------------------------------------------------------------
